p cnf 684 1905
-37 -19 0
-37 -19 0
37 19 19 0
-38 -9 0
-38 37 0
38 9 -37 0
-39 -8 0
-39 -8 0
39 8 8 0
-40 -6 0
-40 39 0
40 6 -39 0
-41 -13 0
-41 -13 0
41 13 13 0
-42 -11 0
-42 41 0
42 11 -41 0
-43 -17 0
-43 -17 0
43 17 17 0
-44 -15 0
-44 43 0
44 15 -43 0
-45 -22 0
-45 -22 0
45 22 22 0
-46 -20 0
-46 45 0
46 20 -45 0
-47 -26 0
-47 -26 0
47 26 26 0
-48 -24 0
-48 47 0
48 24 -47 0
-49 -3 0
-49 -3 0
49 3 3 0
-50 -30 0
-50 -30 0
50 30 30 0
-51 -35 0
-51 -35 0
51 35 35 0
-52 -50 0
-52 -51 0
52 50 51 0
-53 -49 0
-53 52 0
53 49 -52 0
-54 -48 0
-54 53 0
54 48 -53 0
-55 -46 0
-55 54 0
55 46 -54 0
-56 -44 0
-56 55 0
56 44 -55 0
-57 -42 0
-57 56 0
57 42 -56 0
-58 -40 0
-58 57 0
58 40 -57 0
-59 -38 0
-59 58 0
59 38 -58 0
-60 28 0
-60 -51 0
60 -28 51 0
-61 -49 0
-61 60 0
61 49 -60 0
-62 -48 0
-62 61 0
62 48 -61 0
-63 -46 0
-63 62 0
63 46 -62 0
-64 -44 0
-64 63 0
64 44 -63 0
-65 -42 0
-65 64 0
65 42 -64 0
-66 -40 0
-66 65 0
66 40 -65 0
-67 -38 0
-67 66 0
67 38 -66 0
-68 32 0
-68 -50 0
68 -32 50 0
-69 -49 0
-69 68 0
69 49 -68 0
-70 -48 0
-70 69 0
70 48 -69 0
-71 -46 0
-71 70 0
71 46 -70 0
-72 -44 0
-72 71 0
72 44 -71 0
-73 -42 0
-73 72 0
73 42 -72 0
-74 -40 0
-74 73 0
74 40 -73 0
-75 -38 0
-75 74 0
75 38 -74 0
-76 28 0
-76 32 0
76 -28 -32 0
-77 -49 0
-77 76 0
77 49 -76 0
-78 -48 0
-78 77 0
78 48 -77 0
-79 -46 0
-79 78 0
79 46 -78 0
-80 -44 0
-80 79 0
80 44 -79 0
-81 -42 0
-81 80 0
81 42 -80 0
-82 -40 0
-82 81 0
82 40 -81 0
-83 -38 0
-83 82 0
83 38 -82 0
-84 -50 0
-84 -51 0
84 50 51 0
-85 1 0
-85 84 0
85 -1 -84 0
-86 -48 0
-86 85 0
86 48 -85 0
-87 -46 0
-87 86 0
87 46 -86 0
-88 -44 0
-88 87 0
88 44 -87 0
-89 -42 0
-89 88 0
89 42 -88 0
-90 -40 0
-90 89 0
90 40 -89 0
-91 -38 0
-91 90 0
91 38 -90 0
-92 28 0
-92 -51 0
92 -28 51 0
-93 1 0
-93 92 0
93 -1 -92 0
-94 -48 0
-94 93 0
94 48 -93 0
-95 -46 0
-95 94 0
95 46 -94 0
-96 -44 0
-96 95 0
96 44 -95 0
-97 -42 0
-97 96 0
97 42 -96 0
-98 -40 0
-98 97 0
98 40 -97 0
-99 -38 0
-99 98 0
99 38 -98 0
-100 28 0
-100 32 0
100 -28 -32 0
-101 1 0
-101 100 0
101 -1 -100 0
-102 -48 0
-102 101 0
102 48 -101 0
-103 -46 0
-103 102 0
103 46 -102 0
-104 -44 0
-104 103 0
104 44 -103 0
-105 -42 0
-105 104 0
105 42 -104 0
-106 -40 0
-106 105 0
106 40 -105 0
-107 -38 0
-107 106 0
107 38 -106 0
-108 32 0
-108 -50 0
108 -32 50 0
-109 1 0
-109 108 0
109 -1 -108 0
-110 -48 0
-110 109 0
110 48 -109 0
-111 -46 0
-111 110 0
111 46 -110 0
-112 -44 0
-112 111 0
112 44 -111 0
-113 -42 0
-113 112 0
113 42 -112 0
-114 -40 0
-114 113 0
114 40 -113 0
-115 -38 0
-115 114 0
115 38 -114 0
-116 -107 0
-116 -115 0
116 107 115 0
-117 -99 0
-117 116 0
117 99 -116 0
-118 -91 0
-118 117 0
118 91 -117 0
-119 -83 0
-119 118 0
119 83 -118 0
-120 -75 0
-120 119 0
120 75 -119 0
-121 -67 0
-121 120 0
121 67 -120 0
-122 -59 0
-122 121 0
122 59 -121 0
-123 122 0
-123 122 0
123 -122 -122 0
-124 -19 0
-124 -19 0
124 19 19 0
-125 -9 0
-125 124 0
125 9 -124 0
-126 -8 0
-126 -8 0
126 8 8 0
-127 -6 0
-127 126 0
127 6 -126 0
-128 -13 0
-128 -13 0
128 13 13 0
-129 -11 0
-129 128 0
129 11 -128 0
-130 -17 0
-130 -17 0
130 17 17 0
-131 -15 0
-131 130 0
131 15 -130 0
-132 -22 0
-132 -22 0
132 22 22 0
-133 -20 0
-133 132 0
133 20 -132 0
-134 -26 0
-134 -26 0
134 26 26 0
-135 -24 0
-135 134 0
135 24 -134 0
-136 -3 0
-136 -3 0
136 3 3 0
-137 -30 0
-137 -30 0
137 30 30 0
-138 -35 0
-138 -35 0
138 35 35 0
-139 -137 0
-139 -138 0
139 137 138 0
-140 -136 0
-140 139 0
140 136 -139 0
-141 -135 0
-141 140 0
141 135 -140 0
-142 -133 0
-142 141 0
142 133 -141 0
-143 -131 0
-143 142 0
143 131 -142 0
-144 -129 0
-144 143 0
144 129 -143 0
-145 -127 0
-145 144 0
145 127 -144 0
-146 -125 0
-146 145 0
146 125 -145 0
-147 28 0
-147 -138 0
147 -28 138 0
-148 -136 0
-148 147 0
148 136 -147 0
-149 -135 0
-149 148 0
149 135 -148 0
-150 -133 0
-150 149 0
150 133 -149 0
-151 -131 0
-151 150 0
151 131 -150 0
-152 -129 0
-152 151 0
152 129 -151 0
-153 -127 0
-153 152 0
153 127 -152 0
-154 -125 0
-154 153 0
154 125 -153 0
-155 32 0
-155 -137 0
155 -32 137 0
-156 -136 0
-156 155 0
156 136 -155 0
-157 -135 0
-157 156 0
157 135 -156 0
-158 -133 0
-158 157 0
158 133 -157 0
-159 -131 0
-159 158 0
159 131 -158 0
-160 -129 0
-160 159 0
160 129 -159 0
-161 -127 0
-161 160 0
161 127 -160 0
-162 -125 0
-162 161 0
162 125 -161 0
-163 28 0
-163 32 0
163 -28 -32 0
-164 -136 0
-164 163 0
164 136 -163 0
-165 -135 0
-165 164 0
165 135 -164 0
-166 -133 0
-166 165 0
166 133 -165 0
-167 -131 0
-167 166 0
167 131 -166 0
-168 -129 0
-168 167 0
168 129 -167 0
-169 -127 0
-169 168 0
169 127 -168 0
-170 -125 0
-170 169 0
170 125 -169 0
-171 -137 0
-171 -138 0
171 137 138 0
-172 1 0
-172 171 0
172 -1 -171 0
-173 -135 0
-173 172 0
173 135 -172 0
-174 -133 0
-174 173 0
174 133 -173 0
-175 -131 0
-175 174 0
175 131 -174 0
-176 -129 0
-176 175 0
176 129 -175 0
-177 -127 0
-177 176 0
177 127 -176 0
-178 -125 0
-178 177 0
178 125 -177 0
-179 28 0
-179 -138 0
179 -28 138 0
-180 1 0
-180 179 0
180 -1 -179 0
-181 -135 0
-181 180 0
181 135 -180 0
-182 -133 0
-182 181 0
182 133 -181 0
-183 -131 0
-183 182 0
183 131 -182 0
-184 -129 0
-184 183 0
184 129 -183 0
-185 -127 0
-185 184 0
185 127 -184 0
-186 -125 0
-186 185 0
186 125 -185 0
-187 28 0
-187 32 0
187 -28 -32 0
-188 1 0
-188 187 0
188 -1 -187 0
-189 -135 0
-189 188 0
189 135 -188 0
-190 -133 0
-190 189 0
190 133 -189 0
-191 -131 0
-191 190 0
191 131 -190 0
-192 -129 0
-192 191 0
192 129 -191 0
-193 -127 0
-193 192 0
193 127 -192 0
-194 -125 0
-194 193 0
194 125 -193 0
-195 32 0
-195 -137 0
195 -32 137 0
-196 1 0
-196 195 0
196 -1 -195 0
-197 -135 0
-197 196 0
197 135 -196 0
-198 -133 0
-198 197 0
198 133 -197 0
-199 -131 0
-199 198 0
199 131 -198 0
-200 -129 0
-200 199 0
200 129 -199 0
-201 -127 0
-201 200 0
201 127 -200 0
-202 -125 0
-202 201 0
202 125 -201 0
-203 -194 0
-203 -202 0
203 194 202 0
-204 -186 0
-204 203 0
204 186 -203 0
-205 -178 0
-205 204 0
205 178 -204 0
-206 -170 0
-206 205 0
206 170 -205 0
-207 -162 0
-207 206 0
207 162 -206 0
-208 -154 0
-208 207 0
208 154 -207 0
-209 -146 0
-209 208 0
209 146 -208 0
-210 209 0
-210 209 0
210 -209 -209 0
-211 123 0
-211 -210 0
-212 -123 0
-212 210 0
213 211 212 0
-214 122 0
-214 122 0
214 -122 -122 0
-215 1 0
-215 -214 0
215 -1 214 0
-216 49 0
-216 -215 0
216 -49 215 0
-217 -4 0
-217 216 0
217 4 -216 0
-218 32 0
-218 -214 0
218 -32 214 0
-219 51 0
-219 -218 0
219 -51 218 0
-220 -36 0
-220 219 0
220 36 -219 0
-221 28 0
-221 -214 0
221 -28 214 0
-222 50 0
-222 -221 0
222 -50 221 0
-223 -31 0
-223 222 0
223 31 -222 0
-224 -48 0
-224 -214 0
224 48 214 0
-225 -27 0
-225 47 0
225 27 -47 0
-226 -224 0
-226 225 0
226 224 -225 0
-227 -46 0
-227 -214 0
227 46 214 0
-228 -23 0
-228 45 0
228 23 -45 0
-229 -227 0
-229 228 0
229 227 -228 0
-230 -44 0
-230 -214 0
230 44 214 0
-231 -18 0
-231 43 0
231 18 -43 0
-232 -230 0
-232 231 0
232 230 -231 0
-233 -42 0
-233 -214 0
233 42 214 0
-234 -14 0
-234 41 0
234 14 -41 0
-235 -233 0
-235 234 0
235 233 -234 0
-236 -38 0
-236 -214 0
236 38 214 0
-237 -33 0
-237 37 0
237 33 -37 0
-238 -236 0
-238 237 0
238 236 -237 0
-239 -40 0
-239 -214 0
239 40 214 0
-240 -10 0
-240 39 0
240 10 -39 0
-241 -239 0
-241 240 0
241 239 -240 0
-242 -238 0
-242 -241 0
242 238 241 0
-243 -235 0
-243 242 0
243 235 -242 0
-244 -232 0
-244 243 0
244 232 -243 0
-245 -229 0
-245 244 0
245 229 -244 0
-246 -226 0
-246 245 0
246 226 -245 0
-247 -223 0
-247 246 0
247 223 -246 0
-248 -220 0
-248 247 0
248 220 -247 0
-249 -217 0
-249 248 0
249 217 -248 0
-250 -249 0
-250 -249 0
250 249 249 0
-251 209 0
-251 209 0
251 -209 -209 0
-252 1 0
-252 -251 0
252 -1 251 0
-253 136 0
-253 -252 0
253 -136 252 0
-254 -4 0
-254 253 0
254 4 -253 0
-255 32 0
-255 -251 0
255 -32 251 0
-256 138 0
-256 -255 0
256 -138 255 0
-257 -36 0
-257 256 0
257 36 -256 0
-258 28 0
-258 -251 0
258 -28 251 0
-259 137 0
-259 -258 0
259 -137 258 0
-260 -31 0
-260 259 0
260 31 -259 0
-261 -135 0
-261 -251 0
261 135 251 0
-262 -27 0
-262 134 0
262 27 -134 0
-263 -261 0
-263 262 0
263 261 -262 0
-264 -133 0
-264 -251 0
264 133 251 0
-265 -23 0
-265 132 0
265 23 -132 0
-266 -264 0
-266 265 0
266 264 -265 0
-267 -131 0
-267 -251 0
267 131 251 0
-268 -18 0
-268 130 0
268 18 -130 0
-269 -267 0
-269 268 0
269 267 -268 0
-270 -129 0
-270 -251 0
270 129 251 0
-271 -14 0
-271 128 0
271 14 -128 0
-272 -270 0
-272 271 0
272 270 -271 0
-273 -125 0
-273 -251 0
273 125 251 0
-274 -33 0
-274 124 0
274 33 -124 0
-275 -273 0
-275 274 0
275 273 -274 0
-276 -127 0
-276 -251 0
276 127 251 0
-277 -10 0
-277 126 0
277 10 -126 0
-278 -276 0
-278 277 0
278 276 -277 0
-279 -275 0
-279 -278 0
279 275 278 0
-280 -272 0
-280 279 0
280 272 -279 0
-281 -269 0
-281 280 0
281 269 -280 0
-282 -266 0
-282 281 0
282 266 -281 0
-283 -263 0
-283 282 0
283 263 -282 0
-284 -260 0
-284 283 0
284 260 -283 0
-285 -257 0
-285 284 0
285 257 -284 0
-286 -254 0
-286 285 0
286 254 -285 0
-287 -286 0
-287 -286 0
287 286 286 0
-288 250 0
-288 -287 0
-289 -250 0
-289 287 0
290 288 289 0
291 -213 -290 0
-292 -249 0
-292 -249 0
292 249 249 0
-293 -217 0
-293 -292 0
293 217 292 0
-294 -5 0
-294 216 0
294 5 -216 0
-295 -293 0
-295 294 0
295 293 -294 0
-296 -241 0
-296 -292 0
296 241 292 0
-297 -12 0
-297 39 0
297 12 -39 0
-298 -239 0
-298 297 0
298 239 -297 0
-299 -296 0
-299 298 0
299 296 -298 0
-300 -235 0
-300 -292 0
300 235 292 0
-301 -16 0
-301 41 0
301 16 -41 0
-302 -233 0
-302 301 0
302 233 -301 0
-303 -300 0
-303 302 0
303 300 -302 0
-304 -232 0
-304 -292 0
304 232 292 0
-305 -21 0
-305 43 0
305 21 -43 0
-306 -230 0
-306 305 0
306 230 -305 0
-307 -304 0
-307 306 0
307 304 -306 0
-308 -229 0
-308 -292 0
308 229 292 0
-309 -25 0
-309 45 0
309 25 -45 0
-310 -227 0
-310 309 0
310 227 -309 0
-311 -308 0
-311 310 0
311 308 -310 0
-312 -226 0
-312 -292 0
312 226 292 0
-313 -29 0
-313 47 0
313 29 -47 0
-314 -224 0
-314 313 0
314 224 -313 0
-315 -312 0
-315 314 0
315 312 -314 0
-316 -223 0
-316 -292 0
316 223 292 0
-317 -34 0
-317 222 0
317 34 -222 0
-318 -316 0
-318 317 0
318 316 -317 0
-319 -220 0
-319 -292 0
319 220 292 0
-320 -2 0
-320 219 0
320 2 -219 0
-321 -319 0
-321 320 0
321 319 -320 0
-322 -238 0
-322 -292 0
322 238 292 0
-323 -321 0
-323 322 0
323 321 -322 0
-324 -318 0
-324 323 0
324 318 -323 0
-325 -315 0
-325 324 0
325 315 -324 0
-326 -311 0
-326 325 0
326 311 -325 0
-327 -307 0
-327 326 0
327 307 -326 0
-328 -303 0
-328 327 0
328 303 -327 0
-329 -299 0
-329 328 0
329 299 -328 0
-330 -295 0
-330 329 0
330 295 -329 0
-331 -318 0
-331 -321 0
331 318 321 0
-332 -315 0
-332 331 0
332 315 -331 0
-333 -311 0
-333 332 0
333 311 -332 0
-334 -307 0
-334 333 0
334 307 -333 0
-335 -303 0
-335 334 0
335 303 -334 0
-336 -299 0
-336 335 0
336 299 -335 0
-337 -295 0
-337 336 0
337 295 -336 0
-338 236 0
-338 337 0
338 -236 -337 0
-339 -37 0
-339 -321 0
339 37 321 0
-340 -318 0
-340 339 0
340 318 -339 0
-341 -315 0
-341 340 0
341 315 -340 0
-342 -311 0
-342 341 0
342 311 -341 0
-343 -307 0
-343 342 0
343 307 -342 0
-344 -303 0
-344 343 0
344 303 -343 0
-345 -299 0
-345 344 0
345 299 -344 0
-346 -295 0
-346 345 0
346 295 -345 0
-347 7 0
-347 -321 0
347 -7 321 0
-348 -318 0
-348 347 0
348 318 -347 0
-349 -315 0
-349 348 0
349 315 -348 0
-350 -311 0
-350 349 0
350 311 -349 0
-351 -307 0
-351 350 0
351 307 -350 0
-352 -303 0
-352 351 0
352 303 -351 0
-353 -299 0
-353 352 0
353 299 -352 0
-354 -295 0
-354 353 0
354 295 -353 0
-355 -346 0
-355 -354 0
355 346 354 0
-356 -338 0
-356 355 0
356 338 -355 0
-357 -330 0
-357 356 0
357 330 -356 0
-358 357 0
-358 357 0
358 -357 -357 0
-359 -286 0
-359 -286 0
359 286 286 0
-360 -254 0
-360 -359 0
360 254 359 0
-361 -5 0
-361 253 0
361 5 -253 0
-362 -360 0
-362 361 0
362 360 -361 0
-363 -278 0
-363 -359 0
363 278 359 0
-364 -12 0
-364 126 0
364 12 -126 0
-365 -276 0
-365 364 0
365 276 -364 0
-366 -363 0
-366 365 0
366 363 -365 0
-367 -272 0
-367 -359 0
367 272 359 0
-368 -16 0
-368 128 0
368 16 -128 0
-369 -270 0
-369 368 0
369 270 -368 0
-370 -367 0
-370 369 0
370 367 -369 0
-371 -269 0
-371 -359 0
371 269 359 0
-372 -21 0
-372 130 0
372 21 -130 0
-373 -267 0
-373 372 0
373 267 -372 0
-374 -371 0
-374 373 0
374 371 -373 0
-375 -266 0
-375 -359 0
375 266 359 0
-376 -25 0
-376 132 0
376 25 -132 0
-377 -264 0
-377 376 0
377 264 -376 0
-378 -375 0
-378 377 0
378 375 -377 0
-379 -263 0
-379 -359 0
379 263 359 0
-380 -29 0
-380 134 0
380 29 -134 0
-381 -261 0
-381 380 0
381 261 -380 0
-382 -379 0
-382 381 0
382 379 -381 0
-383 -260 0
-383 -359 0
383 260 359 0
-384 -34 0
-384 259 0
384 34 -259 0
-385 -383 0
-385 384 0
385 383 -384 0
-386 -257 0
-386 -359 0
386 257 359 0
-387 -2 0
-387 256 0
387 2 -256 0
-388 -386 0
-388 387 0
388 386 -387 0
-389 -275 0
-389 -359 0
389 275 359 0
-390 -388 0
-390 389 0
390 388 -389 0
-391 -385 0
-391 390 0
391 385 -390 0
-392 -382 0
-392 391 0
392 382 -391 0
-393 -378 0
-393 392 0
393 378 -392 0
-394 -374 0
-394 393 0
394 374 -393 0
-395 -370 0
-395 394 0
395 370 -394 0
-396 -366 0
-396 395 0
396 366 -395 0
-397 -362 0
-397 396 0
397 362 -396 0
-398 -385 0
-398 -388 0
398 385 388 0
-399 -382 0
-399 398 0
399 382 -398 0
-400 -378 0
-400 399 0
400 378 -399 0
-401 -374 0
-401 400 0
401 374 -400 0
-402 -370 0
-402 401 0
402 370 -401 0
-403 -366 0
-403 402 0
403 366 -402 0
-404 -362 0
-404 403 0
404 362 -403 0
-405 273 0
-405 404 0
405 -273 -404 0
-406 -124 0
-406 -388 0
406 124 388 0
-407 -385 0
-407 406 0
407 385 -406 0
-408 -382 0
-408 407 0
408 382 -407 0
-409 -378 0
-409 408 0
409 378 -408 0
-410 -374 0
-410 409 0
410 374 -409 0
-411 -370 0
-411 410 0
411 370 -410 0
-412 -366 0
-412 411 0
412 366 -411 0
-413 -362 0
-413 412 0
413 362 -412 0
-414 7 0
-414 -388 0
414 -7 388 0
-415 -385 0
-415 414 0
415 385 -414 0
-416 -382 0
-416 415 0
416 382 -415 0
-417 -378 0
-417 416 0
417 378 -416 0
-418 -374 0
-418 417 0
418 374 -417 0
-419 -370 0
-419 418 0
419 370 -418 0
-420 -366 0
-420 419 0
420 366 -419 0
-421 -362 0
-421 420 0
421 362 -420 0
-422 -413 0
-422 -421 0
422 413 421 0
-423 -405 0
-423 422 0
423 405 -422 0
-424 -397 0
-424 423 0
424 397 -423 0
-425 424 0
-425 424 0
425 -424 -424 0
-426 358 0
-426 -425 0
-427 -358 0
-427 425 0
428 426 427 0
429 -291 -428 0
-430 219 0
-430 219 0
430 -219 -219 0
-431 357 0
-431 357 0
431 -357 -357 0
-432 16 0
-432 -431 0
432 -16 431 0
-433 14 0
-433 -292 0
433 -14 292 0
-434 11 0
-434 -214 0
434 -11 214 0
-435 41 0
-435 -434 0
435 -41 434 0
-436 -433 0
-436 435 0
436 433 -435 0
-437 -432 0
-437 436 0
437 432 -436 0
-438 34 0
-438 -431 0
438 -34 431 0
-439 31 0
-439 -292 0
439 -31 292 0
-440 222 0
-440 -439 0
440 -222 439 0
-441 -438 0
-441 440 0
441 438 -440 0
-442 249 0
-442 -357 0
442 -249 357 0
-443 -441 0
-443 442 0
443 441 -442 0
-444 -437 0
-444 443 0
444 437 -443 0
-445 -430 0
-445 444 0
445 430 -444 0
-446 -36 0
-446 -36 0
446 36 36 0
-447 -357 0
-447 -446 0
447 357 446 0
-448 -441 0
-448 447 0
448 441 -447 0
-449 -437 0
-449 448 0
449 437 -448 0
-450 -430 0
-450 449 0
450 430 -449 0
-451 -2 0
-451 -2 0
451 2 2 0
-452 249 0
-452 -451 0
452 -249 451 0
-453 -441 0
-453 452 0
453 441 -452 0
-454 -437 0
-454 453 0
454 437 -453 0
-455 -430 0
-455 454 0
455 430 -454 0
-456 -446 0
-456 -451 0
456 446 451 0
-457 -441 0
-457 456 0
457 441 -456 0
-458 -437 0
-458 457 0
458 437 -457 0
-459 -430 0
-459 458 0
459 430 -458 0
-460 12 0
-460 -431 0
460 -12 431 0
-461 10 0
-461 -292 0
461 -10 292 0
-462 6 0
-462 -214 0
462 -6 214 0
-463 39 0
-463 -462 0
463 -39 462 0
-464 -461 0
-464 463 0
464 461 -463 0
-465 -460 0
-465 464 0
465 460 -464 0
-466 25 0
-466 -431 0
466 -25 431 0
-467 23 0
-467 -292 0
467 -23 292 0
-468 20 0
-468 -214 0
468 -20 214 0
-469 45 0
-469 -468 0
469 -45 468 0
-470 -467 0
-470 469 0
470 467 -469 0
-471 -466 0
-471 470 0
471 466 -470 0
-472 21 0
-472 -431 0
472 -21 431 0
-473 18 0
-473 -292 0
473 -18 292 0
-474 15 0
-474 -214 0
474 -15 214 0
-475 43 0
-475 -474 0
475 -43 474 0
-476 -473 0
-476 475 0
476 473 -475 0
-477 -472 0
-477 476 0
477 472 -476 0
-478 -471 0
-478 -477 0
478 471 477 0
-479 -437 0
-479 478 0
479 437 -478 0
-480 -465 0
-480 479 0
480 465 -479 0
-481 -480 0
-481 -480 0
481 480 480 0
-482 481 0
-482 481 0
482 -481 -481 0
-483 26 0
-483 -482 0
483 -26 482 0
-484 -122 0
-484 483 0
484 122 -483 0
-485 249 0
-485 484 0
485 -249 -484 0
-486 -357 0
-486 485 0
486 357 -485 0
-487 -27 0
-487 -27 0
487 27 27 0
-488 26 0
-488 -487 0
488 -26 487 0
-489 -482 0
-489 488 0
489 482 -488 0
-490 -122 0
-490 489 0
490 122 -489 0
-491 -357 0
-491 490 0
491 357 -490 0
-492 -29 0
-492 -29 0
492 29 29 0
-493 26 0
-493 -492 0
493 -26 492 0
-494 -482 0
-494 493 0
494 482 -493 0
-495 -122 0
-495 494 0
495 122 -494 0
-496 249 0
-496 495 0
496 -249 -495 0
-497 26 0
-497 -487 0
497 -26 487 0
-498 -492 0
-498 497 0
498 492 -497 0
-499 -482 0
-499 498 0
499 482 -498 0
-500 -122 0
-500 499 0
500 122 -499 0
-501 48 0
-501 48 0
501 -48 -48 0
-502 -482 0
-502 -501 0
502 482 501 0
-503 249 0
-503 502 0
503 -249 -502 0
-504 -357 0
-504 503 0
504 357 -503 0
-505 -482 0
-505 -487 0
505 482 487 0
-506 -501 0
-506 505 0
506 501 -505 0
-507 -357 0
-507 506 0
507 357 -506 0
-508 -482 0
-508 -492 0
508 482 492 0
-509 -501 0
-509 508 0
509 501 -508 0
-510 249 0
-510 509 0
510 -249 -509 0
-511 465 0
-511 465 0
511 -465 -465 0
-512 -27 0
-512 -29 0
512 27 29 0
-513 481 0
-513 512 0
513 -481 -512 0
-514 48 0
-514 513 0
514 -48 -513 0
-515 514 0
-515 514 0
515 -514 -514 0
-516 511 0
-516 515 0
516 -511 -515 0
-517 -510 0
-517 516 0
517 510 -516 0
-518 -507 0
-518 517 0
518 507 -517 0
-519 -504 0
-519 518 0
519 504 -518 0
-520 -500 0
-520 519 0
520 500 -519 0
-521 -496 0
-521 520 0
521 496 -520 0
-522 -491 0
-522 521 0
522 491 -521 0
-523 -486 0
-523 522 0
523 486 -522 0
-524 477 0
-524 477 0
524 -477 -477 0
-525 -437 0
-525 -524 0
525 437 524 0
-526 523 0
-526 -525 0
526 -523 525 0
-527 -459 0
-527 526 0
527 459 -526 0
-528 -455 0
-528 527 0
528 455 -527 0
-529 -450 0
-529 528 0
529 450 -528 0
-530 -445 0
-530 529 0
530 445 -529 0
-531 530 0
-531 530 0
531 -530 -530 0
-532 441 0
-532 481 0
532 -441 -481 0
-533 532 0
-533 532 0
533 -532 -532 0
-534 437 0
-534 437 0
534 -437 -437 0
-535 523 0
-535 534 0
535 -523 -534 0
-536 533 0
-536 535 0
536 -533 -535 0
-537 536 0
-537 536 0
537 -536 -536 0
-538 -482 0
-538 -537 0
538 482 537 0
-539 -531 0
-539 538 0
539 531 -538 0
-540 -216 0
-540 539 0
540 216 -539 0
-541 -19 0
-541 -540 0
541 19 540 0
-542 541 0
-542 541 0
542 -541 -541 0
-543 7 0
-543 -431 0
543 -7 431 0
-544 9 0
-544 -214 0
544 -9 214 0
-545 33 0
-545 -292 0
545 -33 292 0
-546 -544 0
-546 -545 0
546 544 545 0
-547 -543 0
-547 546 0
547 543 -546 0
-548 542 0
-548 547 0
548 -542 -547 0
-549 256 0
-549 256 0
549 -256 -256 0
-550 424 0
-550 424 0
550 -424 -424 0
-551 16 0
-551 -550 0
551 -16 550 0
-552 14 0
-552 -359 0
552 -14 359 0
-553 11 0
-553 -251 0
553 -11 251 0
-554 128 0
-554 -553 0
554 -128 553 0
-555 -552 0
-555 554 0
555 552 -554 0
-556 -551 0
-556 555 0
556 551 -555 0
-557 12 0
-557 -550 0
557 -12 550 0
-558 10 0
-558 -359 0
558 -10 359 0
-559 6 0
-559 -251 0
559 -6 251 0
-560 126 0
-560 -559 0
560 -126 559 0
-561 -558 0
-561 560 0
561 558 -560 0
-562 -557 0
-562 561 0
562 557 -561 0
-563 25 0
-563 -550 0
563 -25 550 0
-564 23 0
-564 -359 0
564 -23 359 0
-565 20 0
-565 -251 0
565 -20 251 0
-566 132 0
-566 -565 0
566 -132 565 0
-567 -564 0
-567 566 0
567 564 -566 0
-568 -563 0
-568 567 0
568 563 -567 0
-569 21 0
-569 -550 0
569 -21 550 0
-570 18 0
-570 -359 0
570 -18 359 0
-571 15 0
-571 -251 0
571 -15 251 0
-572 130 0
-572 -571 0
572 -130 571 0
-573 -570 0
-573 572 0
573 570 -572 0
-574 -569 0
-574 573 0
574 569 -573 0
-575 -568 0
-575 -574 0
575 568 574 0
-576 -556 0
-576 575 0
576 556 -575 0
-577 -562 0
-577 576 0
577 562 -576 0
-578 -577 0
-578 -577 0
578 577 577 0
-579 34 0
-579 -550 0
579 -34 550 0
-580 31 0
-580 -359 0
580 -31 359 0
-581 259 0
-581 -580 0
581 -259 580 0
-582 -579 0
-582 581 0
582 579 -581 0
-583 578 0
-583 582 0
583 -578 -582 0
-584 286 0
-584 -424 0
584 -286 424 0
-585 -582 0
-585 584 0
585 582 -584 0
-586 -583 0
-586 585 0
586 583 -585 0
-587 -556 0
-587 586 0
587 556 -586 0
-588 -549 0
-588 587 0
588 549 -587 0
-589 -36 0
-589 -36 0
589 36 36 0
-590 -424 0
-590 -589 0
590 424 589 0
-591 -582 0
-591 590 0
591 582 -590 0
-592 -556 0
-592 591 0
592 556 -591 0
-593 -549 0
-593 592 0
593 549 -592 0
-594 -2 0
-594 -2 0
594 2 2 0
-595 286 0
-595 -594 0
595 -286 594 0
-596 -582 0
-596 595 0
596 582 -595 0
-597 -556 0
-597 596 0
597 556 -596 0
-598 -549 0
-598 597 0
598 549 -597 0
-599 -589 0
-599 -594 0
599 589 594 0
-600 -582 0
-600 599 0
600 582 -599 0
-601 -556 0
-601 600 0
601 556 -600 0
-602 -549 0
-602 601 0
602 549 -601 0
-603 578 0
-603 578 0
603 -578 -578 0
-604 26 0
-604 -603 0
604 -26 603 0
-605 -209 0
-605 604 0
605 209 -604 0
-606 286 0
-606 605 0
606 -286 -605 0
-607 -424 0
-607 606 0
607 424 -606 0
-608 -27 0
-608 -27 0
608 27 27 0
-609 26 0
-609 -608 0
609 -26 608 0
-610 -603 0
-610 609 0
610 603 -609 0
-611 -209 0
-611 610 0
611 209 -610 0
-612 -424 0
-612 611 0
612 424 -611 0
-613 -29 0
-613 -29 0
613 29 29 0
-614 26 0
-614 -613 0
614 -26 613 0
-615 -603 0
-615 614 0
615 603 -614 0
-616 -209 0
-616 615 0
616 209 -615 0
-617 286 0
-617 616 0
617 -286 -616 0
-618 26 0
-618 -608 0
618 -26 608 0
-619 -613 0
-619 618 0
619 613 -618 0
-620 -603 0
-620 619 0
620 603 -619 0
-621 -209 0
-621 620 0
621 209 -620 0
-622 135 0
-622 135 0
622 -135 -135 0
-623 -603 0
-623 -622 0
623 603 622 0
-624 286 0
-624 623 0
624 -286 -623 0
-625 -424 0
-625 624 0
625 424 -624 0
-626 -603 0
-626 -608 0
626 603 608 0
-627 -622 0
-627 626 0
627 622 -626 0
-628 -424 0
-628 627 0
628 424 -627 0
-629 -603 0
-629 -613 0
629 603 613 0
-630 -622 0
-630 629 0
630 622 -629 0
-631 286 0
-631 630 0
631 -286 -630 0
-632 562 0
-632 562 0
632 -562 -562 0
-633 -27 0
-633 -29 0
633 27 29 0
-634 578 0
-634 633 0
634 -578 -633 0
-635 135 0
-635 634 0
635 -135 -634 0
-636 635 0
-636 635 0
636 -635 -635 0
-637 632 0
-637 636 0
637 -632 -636 0
-638 -631 0
-638 637 0
638 631 -637 0
-639 -628 0
-639 638 0
639 628 -638 0
-640 -625 0
-640 639 0
640 625 -639 0
-641 -621 0
-641 640 0
641 621 -640 0
-642 -617 0
-642 641 0
642 617 -641 0
-643 -612 0
-643 642 0
643 612 -642 0
-644 -607 0
-644 643 0
644 607 -643 0
-645 574 0
-645 574 0
645 -574 -574 0
-646 -556 0
-646 -645 0
646 556 645 0
-647 644 0
-647 -646 0
647 -644 646 0
-648 -602 0
-648 647 0
648 602 -647 0
-649 -598 0
-649 648 0
649 598 -648 0
-650 -593 0
-650 649 0
650 593 -649 0
-651 -588 0
-651 650 0
651 588 -650 0
-652 651 0
-652 651 0
652 -651 -651 0
-653 583 0
-653 583 0
653 -583 -583 0
-654 556 0
-654 556 0
654 -556 -556 0
-655 644 0
-655 654 0
655 -644 -654 0
-656 653 0
-656 655 0
656 -653 -655 0
-657 656 0
-657 656 0
657 -656 -656 0
-658 -603 0
-658 -657 0
658 603 657 0
-659 -652 0
-659 658 0
659 652 -658 0
-660 -253 0
-660 659 0
660 253 -659 0
-661 -19 0
-661 -660 0
661 19 660 0
-662 661 0
-662 661 0
662 -661 -661 0
-663 7 0
-663 -550 0
663 -7 550 0
-664 9 0
-664 -251 0
664 -9 251 0
-665 33 0
-665 -359 0
665 -33 359 0
-666 -664 0
-666 -665 0
666 664 665 0
-667 -663 0
-667 666 0
667 663 -666 0
-668 662 0
-668 667 0
668 -662 -667 0
-669 548 0
-669 -668 0
-670 -548 0
-670 668 0
671 669 670 0
672 -429 -671 0
-673 481 0
-673 -578 0
-674 -481 0
-674 578 0
675 673 674 0
676 -672 -675 0
-677 536 0
-677 -656 0
-678 -536 0
-678 656 0
679 677 678 0
680 -676 -679 0
-681 530 0
-681 -651 0
-682 -530 0
-682 651 0
683 681 682 0
684 -680 -683 0
-684 0
